Route #1: 23 11 17 24 43 14 58 12 54 41
Route #2: 25 35 6 26 33 51 52 39
Route #3: 45 20 36 7 27
Route #4: 61 62 2 21 19 34
Route #5: 22 42 57 38 53 37
Route #6: 30 8 46 59 56 49 31
Route #7: 10 1 50 18
Route #8: 48 32 13 55 5
Route #9: 60 44 16 40 3 4
Route #10: 28 29 15 9 47
Cost 1598.1796223145311